0 43 47
1 23 48
2 50 54
3 56 55
4 39 52
5 47 53
6 33 52
7 39 55
8 57 56
9 54 54
10 35 55
11 40 53
12 50 54
13 46 53
14 49 51
15 42 51
16 42 50
17 43 48
18 46 49
19 28 48
20 40 47
21 37 47
22 43 43
23 40 42
24 36 41
25 30 40
26 35 39
27 35 38
28 32 36
29 27 35
30 33 34
31 7 34
32 30 32
33 28 33
34 31 33
35 33 33
36 31 31
37 28 29
38 22 31
39 28 30
40 27 28
41 20 28
42 28 28
43 19 28
44 18 28
45 15 26
46 21 24
47 18 23
48 19 25
49 17 23
50 20 22
51 18 21
52 19 20
53 12 20
54 3 18
55 16 16
56 14 14
57 13 13
58 10 11
59 7 11
60 6 11
61 7 9
62 7 7
63 6 6
64 4 6
65 5 5
66 5 5
67 2 3
68 3 3
69 1 2
70 1 1

